src/problems/mkp/data/train_data/train_case_5.mkp
 10 5 
 560 1125 300 620 2100 431 68 328 47 122 
 40 91 10 30 160 20 3 12 3 18 
 16 92 41 16 150 23 4 18 6 0 
 38 39 32 71 80 26 5 40 8 12 
 8 71 30 60 200 18 6 30 4 8 
 38 52 30 42 170 9 7 20 0 3 
 600 500 500 500 600