src/problems/tsp/data/train_data/train_case_5.tsp
NAME: case_5
TYPE: TSP
DIMENSION: 5
EDGE_WEIGHT_TYPE: EXPLICIT
EDGE_WEIGHT_FORMAT: FULL_MATRIX 
DISPLAY_DATA_TYPE: TWOD_DISPLAY
EDGE_WEIGHT_SECTION
0 107 241 190 124
107   0 148 137  88
241 148   0 374 171
190 137 374   0 202
124  88 171 202   0
DISPLAY_DATA_SECTION
1    1150.0  1760.0
2     630.0  1660.0
3      40.0  2090.0
4     750.0  1100.0
5     750.0  2030.0
EOF
